NAME : generated_instances_uncapacitated\uncap_25_customers_3
COMMENT : (A-GENERATED-INSTANCE, UNCAPACITATED)
TYPE : CVRP
DIMENSION : 26
EDGE_WEIGHT_TYPE : EUC_2D
CAPACITY : 459
NODE_COORD_SECTION
 1 40 30
 2 29 44
 3 16 49
 4 23 10
 5 38 38
 6 47 45
 7 7 49
 8 10 19
 9 6 37
 10 1 19
 11 36 43
 12 24 25
 13 45 12
 14 4 37
 15 44 40
 16 15 6
 17 44 49
 18 19 43
 19 38 7
 20 50 36
 21 50 2
 22 22 34
 23 27 42
 24 23 4
 25 32 41
 26 21 0
DEMAND_SECTION
1 0
2 14
3 16
4 4
5 14
6 12
7 15
8 5
9 14
10 6
11 17
12 9
13 20
14 18
15 16
16 15
17 14
18 19
19 9
20 11
21 8
22 3
23 9
24 15
25 8
26 15
DEPOT_SECTION
  1
 -1
EOF
